
Gurobi 10.0.1 (linux64) logging started Sun Nov 26 15:37:30 2023

Set parameter LogFile to value "ArtificialInstance/ExperimentV2/S4T5K1/BaSp/gurobi1.txt"
Gurobi Optimizer version 10.0.1 build v10.0.1rc0 (linux64)

CPU model: AMD EPYC 7H12 64-Core Processor, instruction set [SSE2|AVX|AVX2]
Thread count: 128 physical cores, 128 logical processors, using up to 32 threads

Academic license 656792 - for non-commercial use only - registered to b.___@student.vu.nl
Optimize a model with 2420 rows, 3600 columns and 11840 nonzeros
Model fingerprint: 0x18928732
Variable types: 0 continuous, 3600 integer (3600 binary)
Coefficient statistics:
  Matrix range     [1e+00, 1e+00]
  Objective range  [9e-01, 2e+01]
  Bounds range     [1e+00, 1e+00]
  RHS range        [1e+00, 1e+00]
Found heuristic solution: objective 641.0328958
Presolve time: 0.02s
Presolved: 2420 rows, 3600 columns, 11840 nonzeros
Variable types: 0 continuous, 3600 integer (3600 binary)

Root relaxation: objective 3.888119e+01, 1714 iterations, 0.03 seconds (0.03 work units)

    Nodes    |    Current Node    |     Objective Bounds      |     Work
 Expl Unexpl |  Obj  Depth IntInf | Incumbent    BestBd   Gap | It/Node Time

     0     0   38.88119    0  400  641.03290   38.88119  93.9%     -    0s
H    0     0                     198.6220149   38.88119  80.4%     -    0s
H    0     0                     188.3289014   38.88119  79.4%     -    0s
H    0     0                      75.1098447   38.88119  48.2%     -    0s
H    0     0                      74.4494017   44.24028  40.6%     -    0s
H    0     0                      64.8114880   44.24028  31.7%     -    0s
     0     0   44.58170    0  619   64.81149   44.58170  31.2%     -    0s
H    0     0                      60.6063282   44.58170  26.4%     -    0s
     0     0   47.18935    0  667   60.60633   47.18935  22.1%     -    0s
     0     0   50.82651    0  710   60.60633   50.82651  16.1%     -    0s
     0     0   50.93724    0  705   60.60633   50.93724  16.0%     -    0s
     0     0   50.93724    0  716   60.60633   50.93724  16.0%     -    0s
     0     0   52.91238    0  858   60.60633   52.91238  12.7%     -    0s
     0     0   52.91238    0  837   60.60633   52.91238  12.7%     -    0s
     0     2   52.91238    0  837   60.60633   52.91238  12.7%     -    1s

Cutting planes:
  Gomory: 5
  Zero half: 95
  RLT: 27

Explored 197 nodes (43066 simplex iterations) in 2.11 seconds (1.57 work units)
Thread count was 32 (of 128 available processors)

Solution count 7: 60.6063 64.8115 74.4494 ... 641.033

Optimal solution found (tolerance 1.00e-04)
Best objective 6.060632822554e+01, best bound 6.060632822554e+01, gap 0.0000%
